problems/VanDerWaerdenNumbers/VanDerWaerden-models/compact/O2/lingeling/model_1-k3l4n47-solution000001.solution
language Essence 1.3

letting p be
        partition({1, 2, 3, 6, 7, 8, 11, 18, 19, 21, 22, 23, 26, 33, 35, 36, 37, 45, 46},
                  {4, 5, 9, 10, 12, 14, 15, 24, 25, 27, 30, 31, 32, 41, 44, 47},
                  {13, 16, 17, 20, 28, 29, 34, 38, 39, 40, 42, 43})
