problems/VanDerWaerdenNumbers/VanDerWaerden-models/noch/O0/minion/model_1-k3l4n47-solution000001.eprime-solution
language ESSENCE' 1.0

letting p_PartitionAsSet_ExplicitR2_Occurrence be
        [[false, false, false, false, false, false, false, false, false, false, false, false, false, false, false,
          false, false, false, false, false, false, false, false, false, false, false, false, false, false, false, true,
          true, false, false, true, true, true, false, false, true, false, false, false, false, false, false, false;
              int(1..47)],
         [false, false, true, false, false, true, false, true, true, true, false, false, false, true, false, false,
          true, false, true, true, true, false, false, false, true, false, true, true, false, true, false, false, false,
          true, false, false, false, false, false, false, false, true, true, true, false, false, false;
              int(1..47)],
         [true, true, false, true, true, false, true, false, false, false, true, true, true, false, true, true, false,
          true, false, false, false, true, true, true, false, true, false, false, true, false, false, false, true,
          false, false, false, false, true, true, false, true, false, false, false, true, true, true;
              int(1..47)];
             int(1..3)]
